NAME          ALPHA
ROWS
 N  COST      
 E  R1        
 E  R2        
 E  R3        
 E  R4        
 E  R5        
 E  R6        
 E  R7        
 E  R8        
 E  R9        
 E  R10       
 E  R11       
 E  R12       
 E  R13       
 E  R14       
 E  R15       
 E  R16       
 E  R17       
 E  R18       
 E  R19       
 E  R20       
 E  R21       
 E  R22       
 E  R23       
 E  R24       
 E  R25       
 E  R26       
 E  R27       
 E  R28       
 E  R29       
 E  R30       
 E  R31       
 E  R32       
 E  R33       
 E  R34       
 E  R35       
 E  R36       
 E  R37       
COLUMNS
    C1        COST           +1.0000   
    C13       R1             -1.0000   R1             -1.0000   
    C13       R1             -1.0000   R1             -1.0000   
    C13       R1             -1.0000   R1             -1.0000   
    C13       R1             -1.0000   R1             -1.0000   
    C13       R1             -1.0000   R1             -1.0000   
    C13       R1             -1.0000   R1             +1.0000   
    C14       R13            +1.0000   
    C15       R14            +1.0000   
    C16       R15            +1.0000   
    C17       R16            +1.0000   
    C18       R17            +1.0000   
    C19       R18            -1.0000   
    C20       R19            +1.0000   
    C21       R20            -1.0000   
    C22       R21            +1.0000   
    C23       R22            -1.0000   
    C24       R23            +1.0000   
    C25       R24            +2.0000   
    C26       R25            +1.0000   
    C27       R26            -1.0000   
    C28       R27            +1.0000   
    C29       R28            -1.0000   
    C30       R29            +1.0000   
    C31       R30            -1.0000   
    C32       R31            +1.0000   
    C33       R32            +1.0000   
    C34       R33            -1.0000   
    C35       R34            +1.0000   
    C36       R35            -1.0000   
    C37       R36            +1.0000   
    C38       R37            -1.0000   
    C39       R38            +1.0000   
    C40       R39            +1.0000   
    C41       R40            -1.0000   
    C42       R41            +1.0000   
    C43       R42            -1.0000   
    C44       R43            +1.0000   
    C45       R44            -1.0000   
    C46       R45            +1.0000   
    C47       R46            +1.0000   
    C48       R47            -1.0000   
    C49       R48            +1.0000   
    C50       R49            -1.0000   
    C51       R50            +1.0000   
    C52       R51            -1.0000   
    C53       R52            +1.0000   
    C54       R53            +1.0000   
    C55       R54            -1.0000   
    C56       R55            +1.0000   
    C57       R56            -1.0000   
    C58       R57            +1.0000   
    C59       R58            -1.0000   
    C60       R59            +1.0000   
    C61       R60            +1.0000   
    C62       R61            -1.0000   
    C63       R62            +1.0000   
    C64       R63            -1.0000   
    C65       R64            +1.0000   
    C66       R65            -1.0000   
    C67       R66            +1.0000   
    C68       R67            +1.0000   
    C69       R68            -1.0000   
    C70       R69            +1.0000   
    C71       R70            -1.0000   
    C72       R71            +1.0000   
    C73       R72            -1.0000   
    C74       R73            +1.0000   
RHS
    RHS1      R1             +0.0000   R2             +0.0000   
    RHS1      R3             +0.0000   R4             +0.0000   
    RHS1      R5             +0.0000   R6             +0.0000   
    RHS1      R7             +0.0000   R8             +0.0000   
    RHS1      R9             +0.0000   R10            +0.0000   
    RHS1      R11            +0.0000   R12            +0.0000   
    RHS1      R13            +0.0000   R14            +0.0000   
    RHS1      R15            +0.0000   R16            +0.0000   
    RHS1      R17            +0.0000   R18            +0.0000   
    RHS1      R19            +0.0000   R20            +0.0000   
    RHS1      R21            +0.0000   R22            +0.0000   
    RHS1      R23            +0.0000   R24            +0.0000   
    RHS1      R25            +0.0000   R26            +0.0000   
    RHS1      R27            +0.0000   R28            +0.0000   
    RHS1      R29            +0.0000   R30            +0.0000   
    RHS1      R31            +0.0000   R32            +0.0000   
    RHS1      R33            +0.0000   R34            +0.0000   
    RHS1      R35            +0.0000   R36            +1.0000   
    RHS1      R37            +2.0000   
ENDATA